(set-info :source |printed by MathSAT|)
(declare-fun B_24 () Int)
(declare-fun C_24 () (Array Int Int))
(declare-fun A_24 () Int)
(declare-fun E_20 () (Array Int Int))
(declare-fun .loc.46 () Bool)
(declare-fun .loc.51 () Bool)
(declare-fun E_21 () Int)
(declare-fun D_24 () Int)
(declare-fun G_8 () (Array Int Int))
(declare-fun F_14 () (Array Int Int))
(declare-fun H_4 () (Array Int Int))
(declare-fun D_0 () Int)
(declare-fun C_0 () (Array Int Int))
(define-fun .def_8 () Int (! B_24 :next |.y.47|))
(define-fun .def_10 () (Array Int Int) (! C_24 :next |.y.48|))
(define-fun .def_12 () Int (! A_24 :next |.y.49|))
(define-fun .def_14 () (Array Int Int) (! E_20 :next |.y.50|))
(define-fun .def_16 () Bool (! .loc.46 :next |.loc.51|))
(define-fun .def_21 () Int (! E_21 :next |.xtv.1|))
(define-fun .def_26 () Int (! D_24 :next |.xtv.2|))
(define-fun .def_31 () (Array Int Int) (! G_8 :next |.xtv.3|))
(define-fun .def_32 () (Array Int Int) (! F_14 :next |.xtv.4|))
(define-fun .def_73 () (Array Int Int) (! H_4 :next |.xiv.1|))
(define-fun .def_76 () Int (! D_0 :next |.xiv.2|))
(define-fun .def_81 () (Array Int Int) (! C_0 :next |.xiv.3|))
(define-fun .def_70 () Bool (! (not .def_16) :invar-property 0))
(define-fun .def_53 () Bool (= .def_10 .def_14))
(define-fun .def_129 () Bool (and .def_53 .def_70))
(define-fun .def_106 () Bool (= .def_8 .def_12))
(define-fun .def_130 () Bool (and .def_106 .def_129))
(define-fun .def_108 () Bool (= .def_8 0))
(define-fun .def_109 () Bool (not .def_108))
(define-fun .def_131 () Bool (and .def_109 .def_130))
(define-fun .def_111 () Bool (= .def_12 0))
(define-fun .def_112 () Bool (not .def_111))
(define-fun .def_132 () Bool (and .def_112 .def_131))
(define-fun .def_20 () Int (select .def_14 (- 9)))
(define-fun .def_119 () Bool (= .def_20 0))
(define-fun .def_121 () Bool (not .def_119))
(define-fun .def_133 () Bool (and .def_121 .def_132))
(define-fun .def_25 () Int (select .def_10 (- 9)))
(define-fun .def_124 () Bool (= .def_25 0))
(define-fun .def_126 () Bool (not .def_124))
(define-fun .def_134 () Bool (and .def_126 .def_133))
(define-fun .def_77 () Bool (<= 0 .def_76))
(define-fun .def_115 () Bool (and .def_70 .def_77))
(define-fun .def_116 () Bool (and .def_106 .def_115))
(define-fun .def_117 () Bool (and .def_109 .def_116))
(define-fun .def_118 () Bool (and .def_112 .def_117))
(define-fun .def_125 () Bool (and .def_118 .def_124))
(define-fun .def_127 () Bool (and .def_125 .def_126))
(define-fun .def_120 () Bool (and .def_118 .def_119))
(define-fun .def_122 () Bool (and .def_120 .def_121))
(define-fun .def_82 () Int (select .def_81 (- 9)))
(define-fun .def_94 () Bool (= .def_82 0))
(define-fun .def_103 () Bool (and .def_77 .def_94))
(define-fun .def_104 () Bool (and .def_70 .def_103))
(define-fun .def_105 () Bool (and .def_53 .def_104))
(define-fun .def_107 () Bool (and .def_105 .def_106))
(define-fun .def_110 () Bool (and .def_107 .def_109))
(define-fun .def_113 () Bool (and .def_110 .def_112))
(define-fun .def_99 () Bool (not .def_77))
(define-fun .def_74 () Int (select .def_73 (- 9)))
(define-fun .def_89 () Bool (= .def_74 (- 1)))
(define-fun .def_90 () Bool (not .def_89))
(define-fun .def_95 () Bool (and .def_90 .def_94))
(define-fun .def_96 () Bool (and .def_77 .def_95))
(define-fun .def_85 () Bool (= .def_73 .def_81))
(define-fun .def_86 () Bool (not .def_85))
(define-fun .def_91 () Bool (or .def_86 .def_90))
(define-fun .def_75 () Bool (= .def_74 0))
(define-fun .def_92 () Bool (and .def_75 .def_91))
(define-fun .def_79 () Bool (not .def_75))
(define-fun .def_93 () Bool (and .def_79 .def_92))
(define-fun .def_97 () Bool (or .def_93 .def_96))
(define-fun .def_98 () Bool (or .def_96 .def_97))
(define-fun .def_100 () Bool (and .def_98 .def_99))
(define-fun .def_83 () Bool (= .def_74 .def_82))
(define-fun .def_84 () Bool (not .def_83))
(define-fun .def_87 () Bool (or .def_84 .def_86))
(define-fun .def_78 () Bool (and .def_75 .def_77))
(define-fun .def_80 () Bool (and .def_78 .def_79))
(define-fun .def_88 () Bool (and .def_80 .def_87))
(define-fun .def_101 () Bool (or .def_88 .def_100))
(define-fun .def_102 () Bool (and .def_16 .def_101))
(define-fun .def_114 () Bool (or .def_102 .def_113))
(define-fun .def_123 () Bool (or .def_114 .def_122))
(define-fun .def_128 () Bool (or .def_123 .def_127))
(define-fun .def_135 () Bool (! (or .def_128 .def_134) :init true))
(define-fun .def_71 () Bool (and .loc.51 .def_70))
(define-fun .def_36 () Bool (<= .def_8 0))
(define-fun .def_67 () Bool (not .def_36))
(define-fun .def_27 () Bool (<= 0 .def_26))
(define-fun .def_61 () Int (ite .def_27 .def_20 (- 1)))
(define-fun .def_62 () Bool (= .def_61 (- 1)))
(define-fun .def_63 () Bool (not .def_62))
(define-fun .def_33 () Bool (= .def_31 .def_32))
(define-fun .def_34 () Bool (not .def_33))
(define-fun .def_64 () Bool (or .def_34 .def_63))
(define-fun .def_57 () Bool (<= 0 .def_8))
(define-fun .def_60 () Bool (not .def_57))
(define-fun .def_65 () Bool (and .def_60 .def_64))
(define-fun .def_28 () Int (ite .def_27 .def_25 (- 1)))
(define-fun .def_23 () Bool (<= 0 .def_21))
(define-fun .def_24 () Int (ite .def_23 .def_20 (- 1)))
(define-fun .def_29 () Bool (= .def_24 .def_28))
(define-fun .def_30 () Bool (not .def_29))
(define-fun .def_35 () Bool (or .def_30 .def_34))
(define-fun .def_58 () Bool (and .def_35 .def_57))
(define-fun .def_54 () Bool (not .def_53))
(define-fun .def_45 () Int (* (- 1) .def_20))
(define-fun .def_46 () Int (+ .def_45 .def_25))
(define-fun .def_47 () Int (* (- 1) .def_12))
(define-fun .def_48 () Int (+ .def_47 .def_46))
(define-fun .def_49 () Int (+ .def_8 .def_48))
(define-fun .def_50 () Bool (= .def_49 0))
(define-fun .def_51 () Bool (not .def_50))
(define-fun .def_38 () Bool (= .def_21 .def_26))
(define-fun .def_39 () Bool (and .def_33 .def_38))
(define-fun .def_52 () Bool (or .def_39 .def_51))
(define-fun .def_55 () Bool (or .def_52 .def_54))
(define-fun .def_59 () Bool (and .def_55 .def_58))
(define-fun .def_66 () Bool (or .def_59 .def_65))
(define-fun .def_68 () Bool (and .def_66 .def_67))
(define-fun .def_37 () Bool (and .def_35 .def_36))
(define-fun .def_56 () Bool (and .def_37 .def_55))
(define-fun .def_69 () Bool (or .def_56 .def_68))
(define-fun .def_72 () Bool (! (and .def_69 .def_71) :trans true))
(assert true)
